c description: Subset cardinality formula for fast_gnp_random_graph(4,10,0.8)
c generator: CNFgen (0.9.0)
c copyright: (C) 2012-2020 Massimo Lauria <massimo.lauria@uniroma1.it>
c url: https://massimolauria.net/cnfgen
c
p cnf 30 340
1 2 3 4 5 0
1 2 3 4 6 0
1 2 3 4 7 0
1 2 3 4 8 0
1 2 3 5 6 0
1 2 3 5 7 0
1 2 3 5 8 0
1 2 3 6 7 0
1 2 3 6 8 0
1 2 3 7 8 0
1 2 4 5 6 0
1 2 4 5 7 0
1 2 4 5 8 0
1 2 4 6 7 0
1 2 4 6 8 0
1 2 4 7 8 0
1 2 5 6 7 0
1 2 5 6 8 0
1 2 5 7 8 0
1 2 6 7 8 0
1 3 4 5 6 0
1 3 4 5 7 0
1 3 4 5 8 0
1 3 4 6 7 0
1 3 4 6 8 0
1 3 4 7 8 0
1 3 5 6 7 0
1 3 5 6 8 0
1 3 5 7 8 0
1 3 6 7 8 0
1 4 5 6 7 0
1 4 5 6 8 0
1 4 5 7 8 0
1 4 6 7 8 0
1 5 6 7 8 0
2 3 4 5 6 0
2 3 4 5 7 0
2 3 4 5 8 0
2 3 4 6 7 0
2 3 4 6 8 0
2 3 4 7 8 0
2 3 5 6 7 0
2 3 5 6 8 0
2 3 5 7 8 0
2 3 6 7 8 0
2 4 5 6 7 0
2 4 5 6 8 0
2 4 5 7 8 0
2 4 6 7 8 0
2 5 6 7 8 0
3 4 5 6 7 0
3 4 5 6 8 0
3 4 5 7 8 0
3 4 6 7 8 0
3 5 6 7 8 0
4 5 6 7 8 0
9 10 11 12 13 14 0
9 10 11 12 13 15 0
9 10 11 12 13 16 0
9 10 11 12 13 17 0
9 10 11 12 13 18 0
9 10 11 12 14 15 0
9 10 11 12 14 16 0
9 10 11 12 14 17 0
9 10 11 12 14 18 0
9 10 11 12 15 16 0
9 10 11 12 15 17 0
9 10 11 12 15 18 0
9 10 11 12 16 17 0
9 10 11 12 16 18 0
9 10 11 12 17 18 0
9 10 11 13 14 15 0
9 10 11 13 14 16 0
9 10 11 13 14 17 0
9 10 11 13 14 18 0
9 10 11 13 15 16 0
9 10 11 13 15 17 0
9 10 11 13 15 18 0
9 10 11 13 16 17 0
9 10 11 13 16 18 0
9 10 11 13 17 18 0
9 10 11 14 15 16 0
9 10 11 14 15 17 0
9 10 11 14 15 18 0
9 10 11 14 16 17 0
9 10 11 14 16 18 0
9 10 11 14 17 18 0
9 10 11 15 16 17 0
9 10 11 15 16 18 0
9 10 11 15 17 18 0
9 10 11 16 17 18 0
9 10 12 13 14 15 0
9 10 12 13 14 16 0
9 10 12 13 14 17 0
9 10 12 13 14 18 0
9 10 12 13 15 16 0
9 10 12 13 15 17 0
9 10 12 13 15 18 0
9 10 12 13 16 17 0
9 10 12 13 16 18 0
9 10 12 13 17 18 0
9 10 12 14 15 16 0
9 10 12 14 15 17 0
9 10 12 14 15 18 0
9 10 12 14 16 17 0
9 10 12 14 16 18 0
9 10 12 14 17 18 0
9 10 12 15 16 17 0
9 10 12 15 16 18 0
9 10 12 15 17 18 0
9 10 12 16 17 18 0
9 10 13 14 15 16 0
9 10 13 14 15 17 0
9 10 13 14 15 18 0
9 10 13 14 16 17 0
9 10 13 14 16 18 0
9 10 13 14 17 18 0
9 10 13 15 16 17 0
9 10 13 15 16 18 0
9 10 13 15 17 18 0
9 10 13 16 17 18 0
9 10 14 15 16 17 0
9 10 14 15 16 18 0
9 10 14 15 17 18 0
9 10 14 16 17 18 0
9 10 15 16 17 18 0
9 11 12 13 14 15 0
9 11 12 13 14 16 0
9 11 12 13 14 17 0
9 11 12 13 14 18 0
9 11 12 13 15 16 0
9 11 12 13 15 17 0
9 11 12 13 15 18 0
9 11 12 13 16 17 0
9 11 12 13 16 18 0
9 11 12 13 17 18 0
9 11 12 14 15 16 0
9 11 12 14 15 17 0
9 11 12 14 15 18 0
9 11 12 14 16 17 0
9 11 12 14 16 18 0
9 11 12 14 17 18 0
9 11 12 15 16 17 0
9 11 12 15 16 18 0
9 11 12 15 17 18 0
9 11 12 16 17 18 0
9 11 13 14 15 16 0
9 11 13 14 15 17 0
9 11 13 14 15 18 0
9 11 13 14 16 17 0
9 11 13 14 16 18 0
9 11 13 14 17 18 0
9 11 13 15 16 17 0
9 11 13 15 16 18 0
9 11 13 15 17 18 0
9 11 13 16 17 18 0
9 11 14 15 16 17 0
9 11 14 15 16 18 0
9 11 14 15 17 18 0
9 11 14 16 17 18 0
9 11 15 16 17 18 0
9 12 13 14 15 16 0
9 12 13 14 15 17 0
9 12 13 14 15 18 0
9 12 13 14 16 17 0
9 12 13 14 16 18 0
9 12 13 14 17 18 0
9 12 13 15 16 17 0
9 12 13 15 16 18 0
9 12 13 15 17 18 0
9 12 13 16 17 18 0
9 12 14 15 16 17 0
9 12 14 15 16 18 0
9 12 14 15 17 18 0
9 12 14 16 17 18 0
9 12 15 16 17 18 0
9 13 14 15 16 17 0
9 13 14 15 16 18 0
9 13 14 15 17 18 0
9 13 14 16 17 18 0
9 13 15 16 17 18 0
9 14 15 16 17 18 0
10 11 12 13 14 15 0
10 11 12 13 14 16 0
10 11 12 13 14 17 0
10 11 12 13 14 18 0
10 11 12 13 15 16 0
10 11 12 13 15 17 0
10 11 12 13 15 18 0
10 11 12 13 16 17 0
10 11 12 13 16 18 0
10 11 12 13 17 18 0
10 11 12 14 15 16 0
10 11 12 14 15 17 0
10 11 12 14 15 18 0
10 11 12 14 16 17 0
10 11 12 14 16 18 0
10 11 12 14 17 18 0
10 11 12 15 16 17 0
10 11 12 15 16 18 0
10 11 12 15 17 18 0
10 11 12 16 17 18 0
10 11 13 14 15 16 0
10 11 13 14 15 17 0
10 11 13 14 15 18 0
10 11 13 14 16 17 0
10 11 13 14 16 18 0
10 11 13 14 17 18 0
10 11 13 15 16 17 0
10 11 13 15 16 18 0
10 11 13 15 17 18 0
10 11 13 16 17 18 0
10 11 14 15 16 17 0
10 11 14 15 16 18 0
10 11 14 15 17 18 0
10 11 14 16 17 18 0
10 11 15 16 17 18 0
10 12 13 14 15 16 0
10 12 13 14 15 17 0
10 12 13 14 15 18 0
10 12 13 14 16 17 0
10 12 13 14 16 18 0
10 12 13 14 17 18 0
10 12 13 15 16 17 0
10 12 13 15 16 18 0
10 12 13 15 17 18 0
10 12 13 16 17 18 0
10 12 14 15 16 17 0
10 12 14 15 16 18 0
10 12 14 15 17 18 0
10 12 14 16 17 18 0
10 12 15 16 17 18 0
10 13 14 15 16 17 0
10 13 14 15 16 18 0
10 13 14 15 17 18 0
10 13 14 16 17 18 0
10 13 15 16 17 18 0
10 14 15 16 17 18 0
11 12 13 14 15 16 0
11 12 13 14 15 17 0
11 12 13 14 15 18 0
11 12 13 14 16 17 0
11 12 13 14 16 18 0
11 12 13 14 17 18 0
11 12 13 15 16 17 0
11 12 13 15 16 18 0
11 12 13 15 17 18 0
11 12 13 16 17 18 0
11 12 14 15 16 17 0
11 12 14 15 16 18 0
11 12 14 15 17 18 0
11 12 14 16 17 18 0
11 12 15 16 17 18 0
11 13 14 15 16 17 0
11 13 14 15 16 18 0
11 13 14 15 17 18 0
11 13 14 16 17 18 0
11 13 15 16 17 18 0
11 14 15 16 17 18 0
12 13 14 15 16 17 0
12 13 14 15 16 18 0
12 13 14 15 17 18 0
12 13 14 16 17 18 0
12 13 15 16 17 18 0
12 14 15 16 17 18 0
13 14 15 16 17 18 0
19 20 21 0
19 20 22 0
19 20 23 0
19 21 22 0
19 21 23 0
19 22 23 0
20 21 22 0
20 21 23 0
20 22 23 0
21 22 23 0
24 25 26 27 0
24 25 26 28 0
24 25 26 29 0
24 25 26 30 0
24 25 27 28 0
24 25 27 29 0
24 25 27 30 0
24 25 28 29 0
24 25 28 30 0
24 25 29 30 0
24 26 27 28 0
24 26 27 29 0
24 26 27 30 0
24 26 28 29 0
24 26 28 30 0
24 26 29 30 0
24 27 28 29 0
24 27 28 30 0
24 27 29 30 0
24 28 29 30 0
25 26 27 28 0
25 26 27 29 0
25 26 27 30 0
25 26 28 29 0
25 26 28 30 0
25 26 29 30 0
25 27 28 29 0
25 27 28 30 0
25 27 29 30 0
25 28 29 30 0
26 27 28 29 0
26 27 28 30 0
26 27 29 30 0
26 28 29 30 0
27 28 29 30 0
-9 -19 0
-1 -10 0
-1 -20 0
-10 -20 0
-2 -11 -21 0
-2 -11 -24 0
-2 -21 -24 0
-11 -21 -24 0
-3 -12 0
-3 -25 0
-12 -25 0
-4 -13 -22 0
-4 -13 -26 0
-4 -22 -26 0
-13 -22 -26 0
-5 -14 0
-5 -27 0
-14 -27 0
-6 -15 0
-6 -28 0
-15 -28 0
-7 -16 -23 0
-7 -16 -29 0
-7 -23 -29 0
-16 -23 -29 0
-8 -17 0
-8 -30 0
-17 -30 0
-18 0